HmaxDs = 0.500000
HmaxUB_percent = 1.180435
HmaxUB_real = 2405.089095
FTnetDs = 1.000000
FTnetUB_percent = 2.225747
FTnetUB_real = 7865.791665
TIFgap = 0.500000
LimCIPF = 67.369303365
SCIP version 1.1.0 [precision: 8 byte] [memory: block] [mode: optimized] [LP solver: Clp 1.8.2]
Copyright (c) 2002-2008 Konrad-Zuse-Zentrum fuer Informationstechnik Berlin (ZIB)

reading user parameter file </home/fabio/docs/hierarquia/models/scip.set>

read problem <data.N30.I1.s1.cluster4.T8.GL4.W4.TIFgap0.5.mps.gz>
============

original problem has 3169 variables (1596 bin, 0 int, 0 impl, 1573 cont) and 591 constraints

solve problem
=============

presolving:
(round 1) 3 del vars, 3 del conss, 4 chg bounds, 0 chg sides, 196 chg coeffs, 0 upgd conss, 0 impls, 224 clqs
(round 2) 5 del vars, 3 del conss, 4 chg bounds, 1 chg sides, 196 chg coeffs, 0 upgd conss, 0 impls, 224 clqs
(round 3) 5 del vars, 3 del conss, 4 chg bounds, 3 chg sides, 196 chg coeffs, 0 upgd conss, 0 impls, 224 clqs
(round 4) 5 del vars, 4 del conss, 4 chg bounds, 3 chg sides, 196 chg coeffs, 225 upgd conss, 0 impls, 224 clqs
   (0.6s) probing: 297/1596 (18.6%) - 0 fixings, 0 aggregations, 14401 implications, 0 bound changes
   (0.6s) probing aborted: 100/100 successive totally useless probings
presolving (5 rounds):
 5 deleted vars, 4 deleted constraints, 4 tightened bounds, 0 added holes, 3 changed sides, 196 changed coefficients
 28746 implications, 224 cliques
presolved problem has 3164 variables (1596 bin, 0 int, 0 impl, 1568 cont) and 587 constraints
      1 constraints of type <knapsack>
    224 constraints of type <setppc>
    362 constraints of type <linear>
Presolving Time: 0.58

 time | node  | left  |LP iter| mem |mdpt |frac |vars |cons |ccons|cols |rows |cuts |confs|strbr|  dualbound   | primalbound  |  gap   
  0.8s|     1 |     0 |   966 |7838k|   0 | 286 |3164 | 587 | 587 |3164 | 587 |   0 |   0 |   0 | 2.192191e+01 |      --      |    Inf 
  2.2s|     1 |     0 |  4144 |8611k|   0 | 291 |3164 | 587 | 587 |3164 | 591 |   4 |   0 |   0 | 2.368291e+01 |      --      |    Inf 
  2.6s|     1 |     0 |  4245 |8662k|   0 | 281 |3164 | 587 | 587 |3164 | 595 |   8 |   0 |   0 | 2.456619e+01 |      --      |    Inf 
  2.8s|     1 |     0 |  4279 |8664k|   0 | 276 |3164 | 587 | 587 |3164 | 596 |   9 |   0 |   0 | 2.507779e+01 |      --      |    Inf 
  4.0s|     1 |     0 |  5087 |8784k|   0 | 255 |3164 | 587 | 587 |3164 | 645 |  58 |   0 |   0 | 3.159820e+01 |      --      |    Inf 
  5.1s|     1 |     0 |  5897 |8925k|   0 | 254 |3164 | 587 | 587 |3164 | 667 |  80 |   0 |   0 | 3.564751e+01 |      --      |    Inf 
  6.2s|     1 |     0 |  6285 |8992k|   0 | 252 |3164 | 587 | 587 |3164 | 678 |  91 |   0 |   0 | 3.632247e+01 |      --      |    Inf 
  7.4s|     1 |     0 |  6588 |9040k|   0 | 253 |3164 | 587 | 587 |3164 | 689 | 102 |   0 |   0 | 3.679078e+01 |      --      |    Inf 
  8.6s|     1 |     0 |  6841 |9082k|   0 | 251 |3164 | 587 | 587 |3164 | 698 | 111 |   0 |   0 | 3.726059e+01 |      --      |    Inf 
 10.0s|     1 |     0 |  7095 |9117k|   0 | 256 |3164 | 587 | 587 |3164 | 708 | 121 |   0 |   0 | 3.883431e+01 |      --      |    Inf 
 10.5s|     1 |     0 |  7492 |9117k|   0 | 256 |3164 | 587 | 587 |3164 | 709 | 122 |   0 |   0 | 3.925762e+01 |      --      |    Inf 
 22.7s|     1 |     2 |  7524 |9147k|   0 | 256 |3164 | 587 | 587 |3164 | 709 | 122 |   0 |  18 | 3.925762e+01 |      --      |    Inf 
  103s|   100 |    50 | 42354 |9537k|  15 | 166 |3164 | 627 | 517 |3164 | 654 | 122 |  40 | 960 | 3.996672e+01 |      --      |    Inf 
  183s|   200 |   121 |158537 |9857k|  31 | 190 |3164 | 670 | 599 |3164 | 654 | 122 |  83 |1080 | 4.075552e+01 |      --      |    Inf 
  308s|   300 |   161 |302592 |  10M|  31 | 143 |3164 | 735 | 600 |3164 | 654 | 122 | 148 |1392 | 4.081219e+01 |      --      |    Inf 
 time | node  | left  |LP iter| mem |mdpt |frac |vars |cons |ccons|cols |rows |cuts |confs|strbr|  dualbound   | primalbound  |  gap   
  330s|   400 |   190 |335820 |  10M|  31 |   - |3164 | 822 | 438 |   0 |   0 | 122 | 235 |1523 | 4.081745e+01 |      --      |    Inf 
  368s|   500 |   216 |385666 |  10M|  31 | 214 |3164 | 884 | 523 |3164 | 654 | 122 | 298 |1736 | 4.082355e+01 |      --      |    Inf 
  437s|   600 |   236 |466166 |  10M|  37 | 141 |3164 | 963 | 424 |3164 | 654 | 122 | 378 |2113 | 4.082355e+01 |      --      |    Inf 
  566s|   700 |   247 |621985 |  10M|  37 | 139 |3164 |1019 | 521 |3164 | 654 | 122 | 440 |2443 | 4.096894e+01 |      --      |    Inf 
  620s|   800 |   260 |675275 |  11M|  40 | 150 |3164 |1092 | 542 |3164 | 654 | 122 | 517 |2836 | 4.097722e+01 |      --      |    Inf 
  638s|   900 |   278 |702822 |  11M|  40 | 209 |3164 |1166 | 540 |3164 | 654 | 122 | 594 |2957 | 4.097722e+01 |      --      |    Inf 
  652s|  1000 |   303 |722215 |  11M|  40 | 157 |3164 |1235 | 551 |3164 | 654 | 122 | 673 |3036 | 4.097722e+01 |      --      |    Inf 
  675s|  1100 |   309 |764976 |  11M|  40 | 207 |3164 |1285 | 676 |3164 | 654 | 122 | 742 |3103 | 4.104195e+01 |      --      |    Inf 
  714s|  1200 |   322 |827411 |  11M|  40 |   - |3164 |1333 | 629 |   0 |   0 | 122 | 805 |3246 | 4.104414e+01 |      --      |    Inf 
  741s|  1300 |   336 |856689 |  12M|  40 |   - |3164 |1369 | 662 |   0 |   0 | 122 | 856 |3374 | 4.104414e+01 |      --      |    Inf 
  779s|  1400 |   345 |905523 |  12M|  44 | 121 |3164 |1375 | 517 |3164 | 654 | 122 | 890 |3578 | 4.104414e+01 |      --      |    Inf 
  819s|  1500 |   367 |961302 |  12M|  66 | 148 |3164 |1392 | 556 |3164 | 654 | 122 | 928 |3790 | 4.104414e+01 |      --      |    Inf 
  842s|  1600 |   379 |991346 |  12M|  66 |   - |3164 |1418 | 524 |3164 | 654 | 122 | 963 |3923 | 4.104414e+01 |      --      |    Inf 
  926s|  1700 |   361 |  1055k|  12M|  66 | 132 |3164 |1433 | 688 |3164 | 654 | 122 | 993 |4030 | 4.122087e+01 |      --      |    Inf 
  950s|  1800 |   368 |  1095k|  12M|  66 |   - |3164 |1438 | 765 |   0 |   0 | 122 |1007 |4061 | 4.122087e+01 |      --      |    Inf 
 time | node  | left  |LP iter| mem |mdpt |frac |vars |cons |ccons|cols |rows |cuts |confs|strbr|  dualbound   | primalbound  |  gap   
 1011s|  1900 |   362 |  1177k|  12M|  66 | 117 |3164 |1463 | 467 |3164 | 654 | 122 |1050 |4185 | 4.122087e+01 |      --      |    Inf 
 1043s|  2000 |   370 |  1225k|  12M|  66 | 150 |3164 |1510 | 502 |3164 | 654 | 122 |1121 |4345 | 4.122416e+01 |      --      |    Inf 
 1079s|  2100 |   381 |  1270k|  12M|  66 | 187 |3164 |1557 | 573 |3164 | 654 | 122 |1175 |4505 | 4.122416e+01 |      --      |    Inf 
 1119s|  2200 |   394 |  1322k|  13M|  66 | 186 |3164 |1624 | 539 |3164 | 654 | 122 |1251 |4698 | 4.133407e+01 |      --      |    Inf 
 1144s|  2300 |   404 |  1360k|  13M|  66 |   - |3164 |1655 | 769 |   0 |   0 | 122 |1308 |4833 | 4.133407e+01 |      --      |    Inf 
 1182s|  2400 |   402 |  1412k|  13M|  66 | 156 |3164 |1726 | 564 |3164 | 654 | 122 |1406 |5008 | 4.133489e+01 |      --      |    Inf 
 1216s|  2500 |   405 |  1459k|  13M|  66 | 127 |3164 |1767 | 455 |3164 | 654 | 122 |1457 |5192 | 4.133489e+01 |      --      |    Inf 
 1254s|  2600 |   423 |  1508k|  13M|  66 | 134 |3164 |1785 | 527 |3164 | 654 | 122 |1500 |5366 | 4.133489e+01 |      --      |    Inf 
 1301s|  2700 |   423 |  1569k|  13M|  66 | 164 |3164 |1799 | 640 |3164 | 654 | 122 |1565 |5565 | 4.139357e+01 |      --      |    Inf 
 1330s|  2800 |   430 |  1625k|  13M| 103 | 134 |3164 |1822 | 461 |3164 | 654 | 122 |1613 |5593 | 4.139357e+01 |      --      |    Inf 
 1356s|  2900 |   438 |  1670k|  14M| 110 | 116 |3164 |1794 | 538 |3164 | 654 | 122 |1647 |5659 | 4.139357e+01 |      --      |    Inf 
 1383s|  3000 |   447 |  1715k|  14M| 110 | 175 |3164 |1765 | 636 |3164 | 654 | 122 |1692 |5706 | 4.144702e+01 |      --      |    Inf 
 1420s|  3100 |   439 |  1761k|  14M| 110 | 140 |3164 |1768 | 485 |3164 | 654 | 122 |1752 |5738 | 4.144702e+01 |      --      |    Inf 
 1443s|  3200 |   429 |  1798k|  14M| 110 |   - |3164 |1701 | 768 |   0 |   0 | 122 |1797 |5797 | 4.144702e+01 |      --      |    Inf 
 1472s|  3300 |   433 |  1845k|  14M| 110 | 217 |3164 |1656 | 955 |3164 | 654 | 122 |1849 |5942 | 4.144838e+01 |      --      |    Inf 
 time | node  | left  |LP iter| mem |mdpt |frac |vars |cons |ccons|cols |rows |cuts |confs|strbr|  dualbound   | primalbound  |  gap   
 1504s|  3400 |   450 |  1893k|  14M| 110 | 158 |3164 |1647 | 650 |3164 | 654 | 122 |1905 |6080 | 4.144838e+01 |      --      |    Inf 
 1562s|  3500 |   452 |  1965k|  14M| 110 |   - |3164 |1618 | 468 |3164 | 654 | 122 |1982 |6313 | 4.162300e+01 |      --      |    Inf 
 1610s|  3600 |   452 |  2026k|  14M| 110 |   - |3164 |1560 | 604 |   0 |   0 | 122 |2028 |6504 | 4.162300e+01 |      --      |    Inf 
 1632s|  3700 |   449 |  2064k|  15M| 110 |   - |3164 |1567 | 456 |3164 | 654 | 122 |2113 |6621 | 4.162300e+01 |      --      |    Inf 
 1669s|  3800 |   464 |  2117k|  15M| 110 |  82 |3164 |1490 | 473 |3164 | 654 | 122 |2164 |6802 | 4.162300e+01 |      --      |    Inf 
 1705s|  3900 |   478 |  2179k|  15M| 110 |   - |3164 |1501 | 403 |   0 |   0 | 122 |2205 |6914 | 4.162300e+01 |      --      |    Inf 
(node 3999) unresolved numerical troubles in LP 5269
 1782s|  4000 |   484 |  2276k|  15M| 110 | 165 |3164 |1483 | 849 |3164 | 654 | 122 |2258 |6985 | 4.166478e+01 |      --      |    Inf 
 1810s|  4100 |   501 |  2330k|  15M| 110 | 157 |3164 |1444 | 684 |3164 | 654 | 122 |2289 |7031 | 4.181654e+01 |      --      |    Inf 
 1847s|  4200 |   507 |  2386k|  15M| 110 | 180 |3164 |1439 | 509 |3164 | 654 | 122 |2294 |7074 | 4.181654e+01 |      --      |    Inf 
 1888s|  4300 |   508 |  2441k|  15M| 110 |   - |3164 |1433 | 428 |3164 | 654 | 122 |2294 |7171 | 4.181654e+01 |      --      |    Inf 
(node 4340) unresolved numerical troubles in LP 5747
 1952s|  4400 |   511 |  2519k|  15M| 110 | 162 |3164 |1439 | 479 |3164 | 654 | 122 |2331 |7387 | 4.181654e+01 |      --      |    Inf 
 2005s|  4500 |   517 |  2592k|  15M| 110 |   - |3164 |1429 | 373 |3164 | 654 | 122 |2380 |7615 | 4.181654e+01 |      --      |    Inf 
 2068s|  4600 |   525 |  2649k|  15M| 110 |   - |3164 |1432 | 373 |3164 | 654 | 122 |2403 |7798 | 4.181654e+01 |      --      |    Inf 
 2081s|  4700 |   538 |  2667k|  15M| 110 | 153 |3164 |1495 | 468 |3164 | 654 | 122 |2476 |7850 | 4.181654e+01 |      --      |    Inf 
 2113s|  4800 |   554 |  2703k|  16M| 110 |   - |3164 |1520 | 624 |3164 | 654 | 122 |2537 |7964 | 4.200596e+01 |      --      |    Inf 
 time | node  | left  |LP iter| mem |mdpt |frac |vars |cons |ccons|cols |rows |cuts |confs|strbr|  dualbound   | primalbound  |  gap   
 2175s|  4900 |   561 |  2761k|  16M| 110 |   - |3164 |1540 | 366 |3164 | 654 | 122 |2584 |8096 | 4.204517e+01 |      --      |    Inf 
 2197s|  5000 |   575 |  2791k|  16M| 110 | 119 |3164 |1548 | 489 |3164 | 654 | 122 |2604 |8125 | 4.204517e+01 |      --      |    Inf 
 2216s|  5100 |   582 |  2828k|  16M| 110 |   - |3164 |1551 | 390 |3164 | 654 | 122 |2654 |8171 | 4.204517e+01 |      --      |    Inf 
 2260s|  5200 |   582 |  2896k|  16M| 110 | 168 |3164 |1464 | 647 |3164 | 654 | 122 |2698 |8346 | 4.210760e+01 |      --      |    Inf 
 2291s|  5300 |   583 |  2939k|  16M| 110 |   - |3164 |1389 | 511 |3164 | 654 | 122 |2739 |8414 | 4.211247e+01 |      --      |    Inf 
 2317s|  5400 |   584 |  2985k|  16M| 110 |   - |3164 |1394 | 555 |3164 | 654 | 122 |2772 |8512 | 4.211247e+01 |      --      |    Inf 
 2368s|  5500 |   578 |  3071k|  16M| 110 | 149 |3164 |1367 | 590 |3164 | 654 | 122 |2803 |8575 | 4.211247e+01 |      --      |    Inf 
 2433s|  5600 |   580 |  3149k|  16M| 110 | 162 |3164 |1387 | 801 |3164 | 654 | 122 |2884 |8649 | 4.211247e+01 |      --      |    Inf 
 2444s|  5700 |   596 |  3169k|  17M| 110 |  93 |3164 |1415 | 356 |3164 | 654 | 122 |2927 |8663 | 4.211247e+01 |      --      |    Inf 
(node 5778) unresolved numerical troubles in LP 7407
 2463s|  5800 |   606 |  3212k|  17M| 110 |   - |3164 |1372 | 377 |3164 | 654 | 122 |2941 |8716 | 4.211247e+01 |      --      |    Inf 
 2484s|  5900 |   612 |  3252k|  17M| 110 | 114 |3164 |1346 | 428 |3164 | 654 | 122 |2970 |8814 | 4.211247e+01 |      --      |    Inf 
 2528s|  6000 |   604 |  3314k|  17M| 110 | 136 |3164 |1343 | 592 |3164 | 654 | 122 |3021 |8977 | 4.211247e+01 |      --      |    Inf 
 2555s|  6100 |   617 |  3348k|  17M| 110 |   - |3164 |1351 | 565 |3164 | 654 | 122 |3061 |9069 | 4.211247e+01 |      --      |    Inf 
 2601s|  6200 |   624 |  3405k|  17M| 110 |  95 |3164 |1337 | 403 |3164 | 654 | 122 |3103 |9212 | 4.211247e+01 |      --      |    Inf 
 2628s|  6300 |   632 |  3444k|  17M| 110 |   - |3164 |1332 | 376 |3164 | 654 | 122 |3129 |9332 | 4.211247e+01 |      --      |    Inf 
 time | node  | left  |LP iter| mem |mdpt |frac |vars |cons |ccons|cols |rows |cuts |confs|strbr|  dualbound   | primalbound  |  gap   
 2676s|  6400 |   629 |  3508k|  17M| 110 | 147 |3164 |1297 | 532 |3164 | 654 | 122 |3177 |9505 | 4.211247e+01 |      --      |    Inf 
 2711s|  6500 |   630 |  3553k|  17M| 110 |   - |3164 |1293 | 433 |3164 | 654 | 122 |3243 |9616 | 4.211247e+01 |      --      |    Inf 
 2755s|  6600 |   644 |  3614k|  17M| 110 | 119 |3164 |1295 | 429 |3164 | 654 | 122 |3251 |9628 | 4.211247e+01 |      --      |    Inf 
 2793s|  6700 |   650 |  3664k|  18M| 110 | 119 |3164 |1315 | 429 |3164 | 654 | 122 |3289 |9795 | 4.211247e+01 |      --      |    Inf 
 2824s|  6800 |   667 |  3713k|  18M| 110 |   - |3164 |1330 | 518 |   0 |   0 | 122 |3348 |9941 | 4.211247e+01 |      --      |    Inf 
 2872s|  6900 |   664 |  3789k|  18M| 110 | 146 |3164 |1314 | 467 |3164 | 654 | 122 |3396 |  10k| 4.211247e+01 |      --      |    Inf 
 2958s|  7000 |   678 |  3895k|  18M| 110 | 190 |3164 |1334 | 711 |3164 | 654 | 122 |3445 |  10k| 4.211671e+01 |      --      |    Inf 
 2996s|  7100 |   674 |  3957k|  18M| 110 | 156 |3164 |1333 | 749 |3164 | 654 | 122 |3495 |  10k| 4.215761e+01 |      --      |    Inf 
 3024s|  7200 |   684 |  4002k|  18M| 110 | 143 |3164 |1329 | 541 |3164 | 654 | 122 |3530 |  10k| 4.215761e+01 |      --      |    Inf 
 3105s|  7300 |   674 |  4097k|  18M| 110 | 157 |3164 |1348 | 495 |3164 | 654 | 122 |3613 |  10k| 4.215761e+01 |      --      |    Inf 
 3133s|  7400 |   671 |  4147k|  18M| 110 | 199 |3164 |1347 | 521 |3164 | 654 | 122 |3679 |  10k| 4.215761e+01 |      --      |    Inf 
 3193s|  7500 |   675 |  4215k|  19M| 110 | 183 |3164 |1377 | 649 |3164 | 654 | 122 |3745 |  10k| 4.215761e+01 |      --      |    Inf 
 3217s|  7600 |   684 |  4256k|  19M| 110 |   - |3164 |1423 | 389 |3164 | 654 | 122 |3806 |  10k| 4.215761e+01 |      --      |    Inf 
 3252s|  7700 |   697 |  4302k|  19M| 110 | 158 |3164 |1482 | 556 |3164 | 654 | 122 |3887 |  10k| 4.215761e+01 |      --      |    Inf 
 3291s|  7800 |   700 |  4359k|  19M| 110 | 155 |3164 |1487 | 501 |3164 | 654 | 122 |3937 |  10k| 4.215761e+01 |      --      |    Inf 
 time | node  | left  |LP iter| mem |mdpt |frac |vars |cons |ccons|cols |rows |cuts |confs|strbr|  dualbound   | primalbound  |  gap   
 3357s|  7900 |   692 |  4445k|  19M| 110 |   - |3164 |1490 | 526 |   0 |   0 | 122 |4010 |  11k| 4.215761e+01 |      --      |    Inf 
 3417s|  8000 |   685 |  4522k|  19M| 110 | 194 |3164 |1477 | 737 |3164 | 654 | 122 |4067 |  11k| 4.215761e+01 |      --      |    Inf 
 3485s|  8100 |   684 |  4610k|  19M| 110 | 149 |3164 |1502 | 617 |3164 | 654 | 122 |4132 |  11k| 4.215761e+01 |      --      |    Inf 
 3559s|  8200 |   674 |  4703k|  19M| 110 |   - |3164 |1506 | 438 |3164 | 654 | 122 |4153 |  11k| 4.215761e+01 |      --      |    Inf 
 3593s|  8300 |   683 |  4756k|  19M| 110 |   - |3164 |1487 | 417 |   0 |   0 | 122 |4190 |  11k| 4.215761e+01 |      --      |    Inf 
 3615s|  8400 |   709 |  4806k|  19M| 110 |  92 |3164 |1512 | 397 |3164 | 654 | 122 |4223 |  11k| 4.215761e+01 |      --      |    Inf 
 3632s|  8500 |   738 |  4838k|  20M| 110 | 101 |3164 |1524 | 416 |3164 | 654 | 122 |4260 |  11k| 4.223236e+01 |      --      |    Inf 
 3647s|  8600 |   759 |  4871k|  20M| 110 |  80 |3164 |1528 | 356 |3164 | 654 | 122 |4297 |  11k| 4.228720e+01 |      --      |    Inf 
 3664s|  8700 |   770 |  4905k|  20M| 110 |   - |3164 |1491 | 479 |3164 | 654 | 122 |4334 |  11k| 4.231868e+01 |      --      |    Inf 
 3710s|  8800 |   775 |  4970k|  20M| 110 | 236 |3164 |1533 |1003 |3164 | 654 | 122 |4436 |  11k| 4.231868e+01 |      --      |    Inf 
 3737s|  8900 |   797 |  5010k|  20M| 110 | 159 |3164 |1530 | 564 |3164 | 654 | 122 |4472 |  11k| 4.233087e+01 |      --      |    Inf 
 3788s|  9000 |   807 |  5088k|  20M| 110 |   - |3164 |1536 | 430 |3164 | 654 | 122 |4543 |  11k| 4.234932e+01 |      --      |    Inf 
 3843s|  9100 |   811 |  5156k|  20M| 110 |   - |3164 |1543 | 415 |   0 |   0 | 122 |4602 |  11k| 4.235723e+01 |      --      |    Inf 
 3863s|  9200 |   803 |  5200k|  20M| 110 | 191 |3164 |1529 | 771 |3164 | 654 | 122 |4656 |  11k| 4.235838e+01 |      --      |    Inf 
 3901s|  9300 |   799 |  5261k|  20M| 110 |   - |3164 |1553 | 654 |   0 |   0 | 122 |4752 |  11k| 4.235838e+01 |      --      |    Inf 
(node 9338) unresolved numerical troubles in LP 11026
 time | node  | left  |LP iter| mem |mdpt |frac |vars |cons |ccons|cols |rows |cuts |confs|strbr|  dualbound   | primalbound  |  gap   
 3959s|  9400 |   801 |  5343k|  20M| 110 | 138 |3164 |1557 | 526 |3164 | 654 | 122 |4815 |  11k| 4.252802e+01 |      --      |    Inf 
 4063s|  9500 |   801 |  5471k|  20M| 110 | 154 |3164 |1570 | 602 |3164 | 654 | 122 |4886 |  12k| 4.263609e+01 |      --      |    Inf 
 4148s|  9600 |   807 |  5556k|  21M| 110 | 151 |3164 |1587 | 612 |3164 | 654 | 122 |4951 |  12k| 4.268657e+01 |      --      |    Inf 
 4244s|  9700 |   810 |  5641k|  21M| 110 |   - |3164 |1646 | 444 |3164 | 654 | 122 |5045 |  12k| 4.268657e+01 |      --      |    Inf 
 4296s|  9800 |   814 |  5710k|  21M| 110 |   - |3164 |1707 | 452 |   0 |   0 | 122 |5123 |  12k| 4.269342e+01 |      --      |    Inf 
 4357s|  9900 |   828 |  5797k|  21M| 110 |   - |3164 |1700 | 504 |3164 | 654 | 122 |5160 |  12k| 4.291677e+01 |      --      |    Inf 
 4394s| 10000 |   845 |  5866k|  21M| 110 |   - |3164 |1708 | 416 |3164 | 654 | 122 |5193 |  12k| 4.293331e+01 |      --      |    Inf 
 4455s| 10100 |   841 |  5955k|  21M| 110 | 117 |3164 |1736 | 371 |3164 | 654 | 122 |5244 |  12k| 4.293331e+01 |      --      |    Inf 
 4530s| 10200 |   839 |  6073k|  21M| 110 | 182 |3164 |1702 | 518 |3164 | 654 | 122 |5271 |  12k| 4.297132e+01 |      --      |    Inf 
 4568s| 10300 |   843 |  6133k|  21M| 110 |   - |3164 |1698 | 397 |3164 | 654 | 122 |5287 |  12k| 4.297132e+01 |      --      |    Inf 
(node 10306) unresolved numerical troubles in LP 12035
 4638s| 10400 |   857 |  6233k|  21M| 110 |  86 |3164 |1689 | 472 |3164 | 654 | 122 |5308 |  13k| 4.301714e+01 |      --      |    Inf 
 4718s| 10500 |   853 |  6339k|  21M| 110 | 160 |3164 |1695 | 437 |3164 | 654 | 122 |5340 |  13k| 4.303983e+01 |      --      |    Inf 
 4765s| 10600 |   864 |  6404k|  21M| 110 | 229 |3164 |1695 |1131 |3164 | 654 | 122 |5354 |  13k| 4.303983e+01 |      --      |    Inf 
 4818s| 10700 |   876 |  6464k|  21M| 110 |   - |3164 |1713 | 399 |3164 | 654 | 122 |5421 |  13k| 4.310621e+01 |      --      |    Inf 
 4886s| 10800 |   887 |  6572k|  22M| 110 | 128 |3164 |1714 | 510 |3164 | 654 | 122 |5454 |  13k| 4.316281e+01 |      --      |    Inf 
 time | node  | left  |LP iter| mem |mdpt |frac |vars |cons |ccons|cols |rows |cuts |confs|strbr|  dualbound   | primalbound  |  gap   
 4903s| 10900 |   889 |  6599k|  22M| 110 |   - |3164 |1703 | 461 |   0 |   0 | 122 |5467 |  13k| 4.316281e+01 |      --      |    Inf 
 4969s| 11000 |   895 |  6692k|  22M| 110 |   - |3164 |1733 | 483 |3164 | 654 | 122 |5515 |  13k| 4.316726e+01 |      --      |    Inf 
 5044s| 11100 |   911 |  6794k|  22M| 110 |   - |3164 |1735 | 451 |3164 | 654 | 122 |5543 |  14k| 4.329336e+01 |      --      |    Inf 
 5080s| 11200 |   918 |  6841k|  22M| 110 |   - |3164 |1729 | 462 |3164 | 654 | 122 |5580 |  14k| 4.330533e+01 |      --      |    Inf 
 5126s| 11300 |   921 |  6925k|  22M| 110 |   - |3164 |1734 | 535 |3164 | 654 | 122 |5606 |  14k| 4.330533e+01 |      --      |    Inf 
 5243s| 11400 |   922 |  7086k|  22M| 110 | 197 |3164 |1688 | 581 |3164 | 654 | 122 |5650 |  14k| 4.338296e+01 |      --      |    Inf 
 5323s| 11500 |   911 |  7204k|  22M| 110 | 174 |3164 |1681 | 644 |3164 | 654 | 122 |5696 |  14k| 4.353962e+01 |      --      |    Inf 
 5394s| 11600 |   919 |  7307k|  22M| 110 | 121 |3164 |1663 | 541 |3164 | 654 | 122 |5712 |  14k| 4.363744e+01 |      --      |    Inf 
 5464s| 11700 |   925 |  7397k|  22M| 110 | 175 |3164 |1678 | 544 |3164 | 654 | 122 |5751 |  14k| 4.371822e+01 |      --      |    Inf 
 5569s| 11800 |   931 |  7545k|  22M| 110 |   - |3164 |1716 | 487 |3164 | 654 | 122 |5800 |  14k| 4.376752e+01 |      --      |    Inf 
 5607s| 11900 |   939 |  7612k|  22M| 110 |   - |3164 |1739 | 399 |3164 | 654 | 122 |5864 |  15k| 4.377285e+01 |      --      |    Inf 
 5648s| 12000 |   943 |  7674k|  22M| 110 | 159 |3164 |1754 | 516 |3164 | 654 | 122 |5891 |  15k| 4.378040e+01 |      --      |    Inf 
 5704s| 12100 |   934 |  7760k|  22M| 110 |   - |3164 |1736 | 468 |3164 | 654 | 122 |5928 |  15k| 4.379518e+01 |      --      |    Inf 
 5734s| 12200 |   943 |  7815k|  22M| 110 | 212 |3164 |1719 | 660 |3164 | 654 | 122 |5945 |  15k| 4.379518e+01 |      --      |    Inf 
 5826s| 12300 |   947 |  7902k|  23M| 110 |   - |3164 |1712 | 464 |3164 | 654 | 122 |5967 |  15k| 4.386307e+01 |      --      |    Inf 
 time | node  | left  |LP iter| mem |mdpt |frac |vars |cons |ccons|cols |rows |cuts |confs|strbr|  dualbound   | primalbound  |  gap   
 5864s| 12400 |   930 |  7963k|  22M| 110 | 223 |3164 |1737 | 566 |3164 | 654 | 122 |6026 |  15k| 4.386683e+01 |      --      |    Inf 
 5911s| 12500 |   920 |  8049k|  23M| 110 |   - |3164 |1741 | 549 |3164 | 654 | 122 |6091 |  15k| 4.387444e+01 |      --      |    Inf 
 5977s| 12600 |   918 |  8129k|  23M| 110 | 188 |3164 |1743 | 647 |3164 | 654 | 122 |6155 |  15k| 4.392048e+01 |      --      |    Inf 
(node 12644) unresolved numerical troubles in LP 14647
 6045s| 12700 |   923 |  8229k|  23M| 110 |   - |3164 |1788 | 412 |   0 |   0 | 122 |6242 |  15k| 4.403972e+01 |      --      |    Inf 
 6103s| 12800 |   909 |  8318k|  23M| 110 | 171 |3164 |1843 | 821 |3164 | 654 | 122 |6333 |  15k| 4.408166e+01 |      --      |    Inf 
 6143s| 12900 |   897 |  8376k|  23M| 110 | 185 |3164 |1798 | 949 |3164 | 654 | 122 |6378 |  15k| 4.419875e+01 |      --      |    Inf 
 6169s| 13000 |   901 |  8417k|  23M| 110 |   - |3164 |1792 | 457 |3164 | 654 | 122 |6407 |  15k| 4.419875e+01 |      --      |    Inf 
 6216s| 13100 |   909 |  8479k|  23M| 110 |   - |3164 |1783 | 392 |3164 | 654 | 122 |6433 |  15k| 4.421180e+01 |      --      |    Inf 
 6282s| 13200 |   913 |  8581k|  23M| 110 | 167 |3164 |1775 | 463 |3164 | 654 | 122 |6458 |  16k| 4.457313e+01 |      --      |    Inf 
 6317s| 13300 |   929 |  8632k|  23M| 110 | 182 |3164 |1790 | 535 |3164 | 654 | 122 |6488 |  16k| 4.470305e+01 |      --      |    Inf 
 6377s| 13400 |   930 |  8714k|  23M| 110 |   - |3164 |1798 | 538 |3164 | 654 | 122 |6548 |  16k| 4.490998e+01 |      --      |    Inf 
 6460s| 13500 |   929 |  8831k|  23M| 110 | 212 |3164 |1801 | 558 |3164 | 654 | 122 |6582 |  16k| 4.493763e+01 |      --      |    Inf 
 6575s| 13600 |   935 |  8980k|  23M| 110 |   - |3164 |1785 | 438 |3164 | 654 | 122 |6614 |  16k| 4.511696e+01 |      --      |    Inf 
 6627s| 13700 |   939 |  9066k|  23M| 110 | 113 |3164 |1777 | 469 |3164 | 654 | 122 |6631 |  16k| 4.511696e+01 |      --      |    Inf 
 6688s| 13800 |   939 |  9159k|  23M| 110 | 164 |3164 |1782 | 557 |3164 | 654 | 122 |6655 |  16k| 4.511696e+01 |      --      |    Inf 
 time | node  | left  |LP iter| mem |mdpt |frac |vars |cons |ccons|cols |rows |cuts |confs|strbr|  dualbound   | primalbound  |  gap   
 6791s| 13900 |   937 |  9280k|  23M| 110 |   - |3164 |1794 | 419 |3164 | 654 | 122 |6690 |  16k| 4.539155e+01 |      --      |    Inf 
 6831s| 14000 |   943 |  9337k|  23M| 110 | 185 |3164 |1794 | 522 |3164 | 654 | 122 |6705 |  16k| 4.539155e+01 |      --      |    Inf 
 6869s| 14100 |   932 |  9397k|  24M| 110 |   - |3164 |1823 | 530 |   0 |   0 | 122 |6781 |  16k| 4.588038e+01 |      --      |    Inf 
 6923s| 14200 |   891 |  9500k|  23M| 110 | 190 |3164 |1784 | 628 |3164 | 654 | 122 |6813 |  17k| 4.615893e+01 |      --      |    Inf 
(node 14211) unresolved numerical troubles in LP 16364
 6985s| 14300 |   890 |  9586k|  23M| 110 |   - |3164 |1776 | 561 |3164 | 654 | 122 |6857 |  17k| 4.615893e+01 |      --      |    Inf 
 7016s| 14400 |   884 |  9641k|  23M| 110 |   - |3164 |1751 | 447 |3164 | 654 | 122 |6877 |  17k| 4.682235e+01 |      --      |    Inf 
 7066s| 14500 |   888 |  9716k|  23M| 110 | 108 |3164 |1756 | 435 |3164 | 654 | 122 |6908 |  17k| 4.938074e+01 |      --      |    Inf 
 7131s| 14600 |   889 |  9776k|  23M| 110 | 146 |3164 |1774 | 478 |3164 | 654 | 122 |6939 |  17k| 4.938074e+01 |      --      |    Inf 
 7204s| 14700 |   877 |  9862k|  23M| 110 | 197 |3164 |1773 | 950 |3164 | 654 | 122 |6993 |  17k| 5.208673e+01 |      --      |    Inf 
 7243s| 14800 |   887 |  9922k|  23M| 110 | 108 |3164 |1754 | 464 |3164 | 654 | 122 |7012 |  17k| 5.308754e+01 |      --      |    Inf 
 7303s| 14900 |   890 | 10004k|  23M| 110 | 118 |3164 |1753 | 441 |3164 | 654 | 122 |7034 |  17k| 5.544960e+01 |      --      |    Inf 
 7377s| 15000 |   883 | 10104k|  23M| 110 |   - |3164 |1743 | 402 |3164 | 654 | 122 |7075 |  17k| 5.789266e+01 |      --      |    Inf 
 7460s| 15100 |   802 | 10200k|  22M| 110 |   - |3164 |1745 | 564 |   0 |   0 | 122 |7129 |  18k| 5.927471e+01 |      --      |    Inf 
 7505s| 15200 |   775 | 10271k|  22M| 110 |   - |3164 |1743 | 400 |3164 | 654 | 122 |7162 |  18k| 6.030521e+01 |      --      |    Inf 
 7550s| 15300 |   688 | 10337k|  20M| 110 |   - |3164 |1743 | 423 |3164 | 654 | 122 |7184 |  18k| 1.225255e+03 |      --      |    Inf 
 time | node  | left  |LP iter| mem |mdpt |frac |vars |cons |ccons|cols |rows |cuts |confs|strbr|  dualbound   | primalbound  |  gap   
 7600s| 15400 |   632 | 10396k|  19M| 110 |   - |3164 |1758 | 378 |3164 | 654 | 122 |7216 |  18k| 1.685782e+03 |      --      |    Inf 
 7653s| 15500 |   596 | 10469k|  19M| 110 |   - |3164 |1770 | 432 |3164 | 654 | 122 |7239 |  18k| 1.899061e+03 |      --      |    Inf 
 7690s| 15600 |   564 | 10528k|  19M| 110 |   - |3164 |1782 | 401 |3164 | 654 | 122 |7256 |  18k| 2.092528e+03 |      --      |    Inf 
 7732s| 15700 |   547 | 10580k|  18M| 110 |   - |3164 |1784 | 384 |3164 | 654 | 122 |7267 |  18k| 2.222473e+03 |      --      |    Inf 
 7752s| 15800 |   514 | 10608k|  18M| 110 | 146 |3164 |1780 | 444 |3164 | 654 | 122 |7275 |  18k| 2.464397e+03 |      --      |    Inf 
 7806s| 15900 |   484 | 10684k|  17M| 110 |  69 |3164 |1795 | 350 |3164 | 654 | 122 |7299 |  18k| 2.567752e+03 |      --      |    Inf 
 7838s| 16000 |   473 | 10721k|  17M| 110 |   - |3164 |1807 | 379 |3164 | 654 | 122 |7314 |  18k| 2.581357e+03 |      --      |    Inf 
 7859s| 16100 |   476 | 10752k|  17M| 110 | 139 |3164 |1812 | 416 |3164 | 654 | 122 |7323 |  18k| 2.732455e+03 |      --      |    Inf 
 7877s| 16200 |   458 | 10785k|  17M| 110 | 128 |3164 |1812 | 423 |3164 | 654 | 122 |7328 |  18k| 2.802569e+03 |      --      |    Inf 
 7921s| 16300 |   449 | 10827k|  16M| 110 |   - |3164 |1829 | 346 |3164 | 654 | 122 |7348 |  18k| 2.802569e+03 |      --      |    Inf 
 7924s| 16400 |   463 | 10833k|  16M| 110 |   - |3164 |1825 | 322 |3164 | 654 | 122 |7348 |  18k| 2.802569e+03 |      --      |    Inf 
 7973s| 16500 |   462 | 10897k|  16M| 110 |  96 |3164 |1823 | 417 |3164 | 654 | 122 |7354 |  18k| 2.809216e+03 |      --      |    Inf 
(node 16553) unresolved numerical troubles in LP 19088

SCIP Status        : solving was interrupted [time limit reached]
Solving Time (sec) : 10000.05
Solving Nodes      : 16553
Primal Bound       : +1.00000000000000e+20 (0 solutions)
Dual Bound         : +3.05824898423754e+03
Gap                : infinite

primal solution:
================

no solution available

Statistics
==========

SCIP Status        : solving was interrupted [time limit reached]
Solving Time       :   10000.05
Original Problem   :
  Problem name     : labtel
  Variables        : 3169 (1596 binary, 0 integer, 0 implicit integer, 1573 continuous)
  Constraints      : 591 initial, 591 maximal
Presolved Problem  :
  Problem name     : t_labtel
  Variables        : 3164 (1596 binary, 0 integer, 0 implicit integer, 1568 continuous)
  Constraints      : 587 initial, 1849 maximal
Presolvers         :       Time  FixedVars   AggrVars   ChgTypes  ChgBounds   AddHoles    DelCons   ChgSides   ChgCoefs
  trivial          :       0.00          0          0          0          0          0          0          0          0
  dualfix          :       0.00          0          0          0          0          0          0          0          0
  boundshift       :       0.00          0          0          0          0          0          0          0          0
  inttobinary      :       0.00          0          0          0          0          0          0          0          0
  implics          :       0.00          0          0          0          0          0          0          0          0
  probing          :       0.51          0          0          0          0          0          0          0          0
  knapsack         :       0.00          0          0          0          0          0          0          0          0
  setppc           :       0.00          0          0          0          0          0          0          0          0
  linear           :       0.04          0          5          0          4          0          4          3        196
  logicor          :       0.00          0          0          0          0          0          0          0          0
  bounddisjunction :       0.00          0          0          0          0          0          0          0          0
  root node        :          -          0          -          -          0          -          -          -          -
Constraints        :     Number  #Separate #Propagate    #EnfoLP    #EnfoPS    Cutoffs    DomReds       Cuts      Conss   Children
  integral         :          0          0          0       9129          0          0         23          0          0      18222
  knapsack         :          1         11      70165          0          8          0          0          0          0          0
  setppc           :        224         11      70165          0          8        353    2731641          0          0          0
  linear           :        362         11      69812          0          0       1683    2050033          0          0          0
  logicor          :          0+         0      25942          0          0       1036      19153          0          0          0
  bounddisjunction :          0+         0        928          0          0         10          4          0          0          0
  countsols        :          0          0          0          0          8          0          0          0          0          0
Constraint Timings :  TotalTime   Separate  Propagate     EnfoLP     EnfoPS
  integral         :     871.34       0.00       0.00     871.34       0.00
  knapsack         :       0.18       0.01       0.16       0.00       0.01
  setppc           :      17.09       0.01      17.08       0.00       0.00
  linear           :      57.77       0.15      57.62       0.00       0.00
  logicor          :       3.34       0.00       3.34       0.00       0.00
  bounddisjunction :       0.00       0.00       0.00       0.00       0.00
  countsols        :       0.00       0.00       0.00       0.00       0.00
Propagators        :       Time      Calls    Cutoffs    DomReds
  rootredcost      :       0.07          0          0          0
  pseudoobj        :      12.50      69648          0          0
Conflict Analysis  :       Time      Calls    Success  Conflicts   Literals    Reconvs ReconvLits   LP Iters
  propagation      :       0.65       3082       3072      14203       35.3         55       21.4          -
  infeasible LP    :      18.00       4797        223       2141       97.3          2       51.5          0
  bound exceed. LP :       0.00          0          0          0        0.0          0        0.0          0
  strong branching :       0.00          0          0          0        0.0          0        0.0          0
  pseudo solution  :       0.00          0          0          0        0.0          0        0.0          -
  applied globally :          -          -          -       7358       32.0          -          -          -
  applied locally  :          -          -          -          0        0.0          -          -          -
Separators         :       Time      Calls    Cutoffs    DomReds       Cuts      Conss
  cut pool         :       0.01         10          -          -          8          -    (maximal pool size: 172)
  redcost          :       5.61       9139          0          0          0          0
  impliedbounds    :       0.03         11          0          0          0          0
  intobj           :       0.00          0          0          0          0          0
  gomory           :       0.23         11          0          0         50          0
  strongcg         :       0.16         11          0          0          0          0
  cmir             :       4.82         10          0          0        157          0
  flowcover        :       0.96         10          0          0         10          0
  clique           :       0.03         11          0          0          0          0
  zerohalf         :       0.00          0          0          0          0          0
  mcf              :       0.00          0          0          0          0          0
Pricers            :       Time      Calls       Vars
  problem variables:       0.00          0          0
Branching Rules    :       Time      Calls    Cutoffs    DomReds       Cuts      Conss   Children
  relpscost        :     871.22       9129          0         23          0          0      18222
  pscost           :       0.00          0          0          0          0          0          0
  inference        :       0.00          8          0          0          0          0         16
  mostinf          :       0.00          0          0          0          0          0          0
  leastinf         :       0.00          0          0          0          0          0          0
  fullstrong       :       0.00          0          0          0          0          0          0
  allfullstrong    :       0.00          0          0          0          0          0          0
  random           :       0.00          0          0          0          0          0          0
Primal Heuristics  :       Time      Calls      Found
  LP solutions     :       0.00          -          0
  pseudo solutions :       0.00          -          0
  oneopt           :       0.04          0          0
  crossover        :       0.02          0          0
  guideddiving     :       0.00          0          0
  feaspump         :       1.00          1          0
  objpscostdiving  :       4.16          1          0
  rootsoldiving    :      47.71          1          0
  coefdiving       :       2.11          2          0
  pscostdiving     :       7.26          2          0
  fracdiving       :       7.93          2          0
  veclendiving     :      59.73          2          0
  linesearchdiving :       3.05          2          0
  simplerounding   :       0.13          0          0
  rounding         :       0.65       1329          0
  shifting         :       4.01        383          0
  intshifting      :       0.24          5          0
  fixandinfer      :       0.00          0          0
  intdiving        :       0.00          0          0
  actconsdiving    :       0.00          0          0
  octane           :       0.00          0          0
  rens             :      10.79          1          0
  rins             :       0.00          0          0
  localbranching   :       0.00          0          0
  mutation         :       0.00          0          0
  dins             :       0.00          0          0
LP                 :       Time      Calls Iterations  Iter/call   Iter/sec
  primal LP        :      32.40         80      80302    1003.77    2478.46
  dual LP          :    8742.50      17879   11145457     623.38    1274.86
  barrier LP       :       0.00          0          0       0.00          -
  diving/probing LP:     127.50       1129     210915     186.82    1654.24
  strong branching :     867.93      18454    1979094     107.24    2280.25
    (at root node) :          -         18       2666     148.11          -
  conflict analysis:       0.00          0          0       0.00          -
B&B Tree           :
  number of runs   :          1
  nodes            :      16553
  nodes (total)    :      16553
  nodes left       :        437
  max depth        :        110
  max depth (total):        110
  backtracks       :       1983 (12.0%)
  delayed cutoffs  :       1249
  repropagations   :      15322 (658263 domain reductions, 375 cutoffs)
  avg switch length:       5.81
  switching time   :      32.84
Solution           :
  Solutions found  :          0 (0 improvements)
  Primal Bound     :          -
  Dual Bound       : +3.05824898423754e+03
  Gap              :   infinite
  Root Dual Bound  : +3.92576211119889e+01
